(set-logic QF_IDL)
(set-info :source |
SAL benchmark suite.  Created at SRI by Bruno Dutertre, John Rushby, Maria
Sorea, and Leonardo de Moura.  Contact demoura@csl.sri.com for more
information.

This benchmark was automatically translated into SMT-LIB format by Albert Oliveras.
|)
(set-info :smt-lib-version 2.0)
(set-info :category "industrial")
(set-info :status unsat)
(declare-fun x_0 () Int)
(declare-fun uclid_ZERO () Int)
(declare-fun x_1 () Int)
(declare-fun x_2 () Int)
(declare-fun x_18 () Int)
(declare-fun x_123 () Int)
(declare-fun x_124 () Int)
(declare-fun x_29 () Int)
(declare-fun x_30 () Int)
(declare-fun x_31 () Int)
(declare-fun x_64 () Int)
(declare-fun x_92 () Int)
(declare-fun x_65 () Int)
(declare-fun x_93 () Int)
(declare-fun x_94 () Int)
(declare-fun x_3 () Bool)
(declare-fun x_10 () Bool)
(declare-fun x_11 () Bool)
(declare-fun x_101 () Bool)
(declare-fun x_100 () Bool)
(declare-fun x_102 () Bool)
(declare-fun x_103 () Bool)
(declare-fun x_104 () Bool)
(declare-fun x_105 () Bool)
(declare-fun x_106 () Bool)
(declare-fun x_107 () Bool)
(declare-fun x_108 () Bool)
(declare-fun x_109 () Bool)
(declare-fun x_12 () Bool)
(declare-fun x_110 () Bool)
(declare-fun x_114 () Bool)
(declare-fun x_111 () Bool)
(declare-fun x_112 () Bool)
(declare-fun x_113 () Bool)
(declare-fun x_115 () Bool)
(declare-fun x_116 () Bool)
(declare-fun x_117 () Bool)
(declare-fun x_118 () Bool)
(declare-fun x_119 () Bool)
(declare-fun x_13 () Bool)
(declare-fun x_125 () Bool)
(declare-fun x_120 () Bool)
(declare-fun x_121 () Bool)
(declare-fun x_122 () Bool)
(declare-fun x_126 () Bool)
(declare-fun x_127 () Bool)
(declare-fun x_128 () Bool)
(declare-fun x_129 () Bool)
(declare-fun x_14 () Bool)
(declare-fun x_130 () Bool)
(declare-fun x_131 () Bool)
(declare-fun x_132 () Bool)
(declare-fun x_133 () Bool)
(declare-fun x_134 () Bool)
(declare-fun x_135 () Bool)
(declare-fun x_136 () Bool)
(declare-fun x_137 () Bool)
(declare-fun x_138 () Bool)
(declare-fun x_139 () Bool)
(declare-fun x_15 () Bool)
(declare-fun x_140 () Bool)
(declare-fun x_16 () Bool)
(declare-fun x_17 () Bool)
(declare-fun x_25 () Bool)
(declare-fun x_22 () Bool)
(declare-fun x_19 () Bool)
(declare-fun x_20 () Bool)
(declare-fun x_21 () Bool)
(declare-fun x_23 () Bool)
(declare-fun x_24 () Bool)
(declare-fun x_26 () Bool)
(declare-fun x_27 () Bool)
(declare-fun x_28 () Bool)
(declare-fun x_4 () Bool)
(declare-fun x_38 () Bool)
(declare-fun x_32 () Bool)
(declare-fun x_33 () Bool)
(declare-fun x_34 () Bool)
(declare-fun x_35 () Bool)
(declare-fun x_36 () Bool)
(declare-fun x_37 () Bool)
(declare-fun x_39 () Bool)
(declare-fun x_5 () Bool)
(declare-fun x_40 () Bool)
(declare-fun x_41 () Bool)
(declare-fun x_42 () Bool)
(declare-fun x_43 () Bool)
(declare-fun x_44 () Bool)
(declare-fun x_45 () Bool)
(declare-fun x_46 () Bool)
(declare-fun x_47 () Bool)
(declare-fun x_48 () Bool)
(declare-fun x_49 () Bool)
(declare-fun x_6 () Bool)
(declare-fun x_55 () Bool)
(declare-fun x_51 () Bool)
(declare-fun x_50 () Bool)
(declare-fun x_52 () Bool)
(declare-fun x_53 () Bool)
(declare-fun x_54 () Bool)
(declare-fun x_56 () Bool)
(declare-fun x_57 () Bool)
(declare-fun x_58 () Bool)
(declare-fun x_59 () Bool)
(declare-fun x_7 () Bool)
(declare-fun x_66 () Bool)
(declare-fun x_60 () Bool)
(declare-fun x_61 () Bool)
(declare-fun x_62 () Bool)
(declare-fun x_63 () Bool)
(declare-fun x_67 () Bool)
(declare-fun x_68 () Bool)
(declare-fun x_69 () Bool)
(declare-fun x_8 () Bool)
(declare-fun x_70 () Bool)
(declare-fun x_71 () Bool)
(declare-fun x_72 () Bool)
(declare-fun x_73 () Bool)
(declare-fun x_74 () Bool)
(declare-fun x_75 () Bool)
(declare-fun x_76 () Bool)
(declare-fun x_77 () Bool)
(declare-fun x_78 () Bool)
(declare-fun x_79 () Bool)
(declare-fun x_9 () Bool)
(declare-fun x_85 () Bool)
(declare-fun x_82 () Bool)
(declare-fun x_80 () Bool)
(declare-fun x_81 () Bool)
(declare-fun x_83 () Bool)
(declare-fun x_84 () Bool)
(declare-fun x_86 () Bool)
(declare-fun x_87 () Bool)
(declare-fun x_88 () Bool)
(declare-fun x_89 () Bool)
(declare-fun x_90 () Bool)
(declare-fun x_95 () Bool)
(declare-fun x_91 () Bool)
(declare-fun x_96 () Bool)
(declare-fun x_97 () Bool)
(declare-fun x_98 () Bool)
(declare-fun x_99 () Bool)
(assert (let ((?v_0 (- x_0 uclid_ZERO)) (?v_1 (- x_1 uclid_ZERO)) (?v_2 (- x_2 uclid_ZERO)) (?v_3 (- x_18 uclid_ZERO))) (let ((?v_12 (= ?v_3 1)) (?v_4 (- x_29 uclid_ZERO)) (?v_5 (- x_30 uclid_ZERO)) (?v_6 (- x_31 uclid_ZERO)) (?v_7 (- x_64 uclid_ZERO))) (let ((?v_207 (= ?v_7 1)) (?v_8 (- x_92 uclid_ZERO)) (?v_9 (- x_93 uclid_ZERO)) (?v_10 (- x_94 uclid_ZERO)) (?v_11 (- x_123 uclid_ZERO))) (let ((?v_208 (= ?v_11 1)) (?v_227 (not x_3)) (?v_224 (not x_4))) (let ((?v_230 (and ?v_227 ?v_224)) (?v_225 (not x_5))) (let ((?v_221 (and ?v_230 ?v_225)) (?v_217 (not x_6)) (?v_218 (not x_7))) (let ((?v_237 (and ?v_217 ?v_218)) (?v_219 (not x_8))) (let ((?v_232 (and ?v_237 ?v_219)) (?v_215 (not x_9)) (?v_216 (not x_11))) (let ((?v_267 (and (and ?v_215 x_10) ?v_216)) (?v_213 (not x_13)) (?v_214 (not x_14))) (let ((?v_245 (and (and x_12 ?v_213) ?v_214)) (?v_210 (not x_15)) (?v_211 (not x_16))) (let ((?v_229 (and ?v_210 ?v_211)) (?v_212 (not x_17))) (let ((?v_220 (and ?v_229 ?v_212)) (?v_162 (= x_92 x_29)) (?v_158 (= x_93 x_30))) (let ((?v_200 (and ?v_162 ?v_158)) (?v_159 (= x_94 x_31))) (let ((?v_83 (and ?v_200 ?v_159)) (?v_167 (not x_101)) (?v_13 (not x_38))) (let ((?v_188 (and (or ?v_167 x_38) (or ?v_13 x_101))) (?v_181 (not x_102)) (?v_14 (not x_39))) (let ((?v_189 (and (or ?v_181 x_39) (or ?v_14 x_102))) (?v_168 (not x_103)) (?v_15 (not x_40))) (let ((?v_190 (and (or ?v_168 x_40) (or ?v_15 x_103))) (?v_191 (not x_104)) (?v_47 (not x_41))) (let ((?v_169 (and (or ?v_191 x_41) (or ?v_47 x_104))) (?v_197 (not x_105)) (?v_48 (not x_42))) (let ((?v_170 (and (or ?v_197 x_42) (or ?v_48 x_105))) (?v_192 (not x_106)) (?v_49 (not x_43))) (let ((?v_171 (and (or ?v_192 x_43) (or ?v_49 x_106))) (?v_206 (not x_107)) (?v_73 (not x_44))) (let ((?v_172 (and (or ?v_206 x_44) (or ?v_73 x_107))) (?v_397 (not x_108)) (?v_74 (not x_45))) (let ((?v_173 (and (or ?v_397 x_45) (or ?v_74 x_108))) (?v_201 (not x_109)) (?v_75 (not x_46))) (let ((?v_174 (and (or ?v_201 x_46) (or ?v_75 x_109)))) (let ((?v_86 (and (and (and (and (and (and (and (and ?v_188 ?v_189) ?v_190) ?v_169) ?v_170) ?v_171) ?v_172) ?v_173) ?v_174)) (?v_71 (not x_125)) (?v_42 (not x_126)) (?v_25 (not x_85)) (?v_26 (not x_86))) (let ((?v_90 (and ?v_25 ?v_26)) (?v_27 (not x_88)) (?v_34 (not x_25))) (let ((?v_92 (and (or ?v_27 x_25) (or ?v_34 x_88))) (?v_28 (not x_89)) (?v_35 (not x_26))) (let ((?v_93 (and (or ?v_28 x_26) (or ?v_35 x_89))) (?v_108 (not x_90)) (?v_36 (not x_27))) (let ((?v_94 (and (or ?v_108 x_27) (or ?v_36 x_90)))) (let ((?v_103 (and (and (and (and ?v_90 x_87) ?v_92) ?v_93) ?v_94))) (let ((?v_43 (and (not x_110) ?v_103)) (?v_29 (not x_114))) (let ((?v_72 (and ?v_43 ?v_29)) (?v_30 (not x_115)) (?v_31 (not x_116)) (?v_104 (not x_55))) (let ((?v_44 (and (or ?v_31 x_55) (or ?v_104 x_116))) (?v_32 (not x_117)) (?v_105 (not x_56))) (let ((?v_45 (and (or ?v_32 x_56) (or ?v_105 x_117))) (?v_20 (not x_95)) (?v_16 (not x_96))) (let ((?v_22 (and ?v_20 ?v_16)) (?v_17 (not x_97))) (let ((?v_46 (and ?v_22 ?v_17)) (?v_23 (and ?v_13 ?v_14))) (let ((?v_89 (and ?v_23 ?v_15))) (let ((?v_33 (and ?v_46 ?v_89)) (?v_21 (not x_22)) (?v_18 (not x_23))) (let ((?v_24 (and ?v_21 ?v_18)) (?v_19 (not x_24))) (let ((?v_50 (and ?v_24 ?v_19)) (?v_51 (and (and x_95 ?v_16) ?v_17)) (?v_97 (and (and x_38 ?v_14) ?v_15))) (let ((?v_37 (and ?v_51 ?v_97)) (?v_52 (and (and x_22 ?v_18) ?v_19)) (?v_53 (and (and ?v_20 x_96) ?v_17)) (?v_99 (and (and ?v_13 x_39) ?v_15))) (let ((?v_38 (and ?v_53 ?v_99)) (?v_54 (and (and ?v_21 x_23) ?v_19)) (?v_55 (and (and x_95 x_96) ?v_17)) (?v_100 (and (and x_38 x_39) ?v_15))) (let ((?v_39 (and ?v_55 ?v_100)) (?v_56 (and (and x_22 x_23) ?v_19)) (?v_57 (and ?v_22 x_97)) (?v_102 (and ?v_23 x_40))) (let ((?v_40 (and ?v_57 ?v_102)) (?v_59 (and ?v_24 x_24)) (?v_91 (not x_87))) (let ((?v_110 (and (and (and (or ?v_25 x_22) (or ?v_21 x_85)) (and (or ?v_26 x_23) (or ?v_18 x_86))) (and (or ?v_91 x_24) (or ?v_19 x_87))))) (let ((?v_112 (and ?v_110 ?v_27))) (let ((?v_107 (and ?v_112 ?v_28))) (let ((?v_116 (and ?v_107 x_90)) (?v_87 (not x_51))) (let ((?v_84 (and (or ?v_29 x_51) (or ?v_87 x_114))) (?v_88 (not x_52))) (let ((?v_85 (and (or ?v_30 x_52) (or ?v_88 x_115)))) (let ((?v_60 (and (and (and x_110 ?v_116) ?v_84) ?v_85))) (let ((?v_77 (and ?v_60 ?v_31)) (?v_41 (and ?v_34 ?v_35))) (let ((?v_62 (and ?v_41 ?v_36)) (?v_64 (and (and x_25 ?v_35) ?v_36)) (?v_66 (and (and ?v_34 x_26) ?v_36)) (?v_68 (and (and x_25 x_26) ?v_36)) (?v_70 (and ?v_41 x_27)) (?v_58 (and ?v_47 ?v_48))) (let ((?v_120 (and ?v_58 ?v_49))) (let ((?v_61 (and ?v_46 ?v_120)) (?v_123 (and (and x_41 ?v_48) ?v_49))) (let ((?v_63 (and ?v_51 ?v_123)) (?v_126 (and (and ?v_47 x_42) ?v_49))) (let ((?v_65 (and ?v_53 ?v_126)) (?v_129 (and (and x_41 x_42) ?v_49))) (let ((?v_67 (and ?v_55 ?v_129)) (?v_132 (and ?v_58 x_43))) (let ((?v_69 (and ?v_57 ?v_132)) (?v_76 (and ?v_73 ?v_74))) (let ((?v_145 (and ?v_76 ?v_75))) (let ((?v_78 (and ?v_46 ?v_145)) (?v_146 (and (and x_44 ?v_74) ?v_75))) (let ((?v_79 (and ?v_51 ?v_146)) (?v_147 (and (and ?v_73 x_45) ?v_75))) (let ((?v_80 (and ?v_53 ?v_147)) (?v_148 (and (and x_44 x_45) ?v_75))) (let ((?v_81 (and ?v_55 ?v_148)) (?v_149 (and ?v_76 x_46))) (let ((?v_82 (and ?v_57 ?v_149)) (?v_156 (- x_124 uclid_ZERO)) (?v_157 (and (and (and ?v_84 ?v_85) ?v_44) ?v_45)) (?v_143 (not x_127)) (?v_117 (not x_128)) (?v_118 (and (not x_91) ?v_59))) (let ((?v_144 (and ?v_118 ?v_87)) (?v_98 (not x_118)) (?v_95 (not x_119))) (let ((?v_101 (and ?v_98 ?v_95)) (?v_96 (not x_120))) (let ((?v_119 (and ?v_101 ?v_96))) (let ((?v_106 (and ?v_119 ?v_89)) (?v_121 (and (and (and (and ?v_90 ?v_91) ?v_92) ?v_93) ?v_94)) (?v_122 (and (and x_118 ?v_95) ?v_96))) (let ((?v_109 (and ?v_122 ?v_97)) (?v_124 (and (and (and (and (and x_85 ?v_26) ?v_91) ?v_92) ?v_93) ?v_94)) (?v_125 (and (and ?v_98 x_119) ?v_96))) (let ((?v_111 (and ?v_125 ?v_99)) (?v_127 (and (and (and (and (and ?v_25 x_86) ?v_91) ?v_92) ?v_93) ?v_94)) (?v_128 (and (and x_118 x_119) ?v_96))) (let ((?v_113 (and ?v_128 ?v_100)) (?v_130 (and (and (and (and (and x_85 x_86) ?v_91) ?v_92) ?v_93) ?v_94)) (?v_131 (and ?v_101 x_120))) (let ((?v_115 (and ?v_131 ?v_102)) (?v_133 (and x_91 ?v_70))) (let ((?v_150 (and ?v_133 ?v_104)) (?v_135 (and ?v_107 ?v_108)) (?v_114 (and ?v_110 x_88))) (let ((?v_137 (and (and ?v_114 ?v_28) ?v_108)) (?v_139 (and (and ?v_112 x_89) ?v_108)) (?v_141 (and (and ?v_114 x_89) ?v_108)) (?v_134 (and ?v_119 ?v_120)) (?v_136 (and ?v_122 ?v_123)) (?v_138 (and ?v_125 ?v_126)) (?v_140 (and ?v_128 ?v_129)) (?v_142 (and ?v_131 ?v_132)) (?v_151 (and ?v_119 ?v_145)) (?v_152 (and ?v_122 ?v_146)) (?v_153 (and ?v_125 ?v_147)) (?v_154 (and ?v_128 ?v_148)) (?v_155 (and ?v_131 ?v_149)) (?v_166 (and (and (and ?v_110 ?v_92) ?v_93) ?v_94)) (?v_165 (not x_129)) (?v_161 (not x_130)) (?v_398 (not x_111)) (?v_160 (not x_113))) (let ((?v_163 (and (and ?v_398 x_112) ?v_160)) (?v_164 (and (and x_111 x_112) ?v_160)) (?v_400 (not x_131)) (?v_185 (not x_132)) (?v_179 (not x_98)) (?v_175 (not x_99))) (let ((?v_396 (and ?v_179 ?v_175)) (?v_176 (not x_100))) (let ((?v_186 (and ?v_396 ?v_176)) (?v_180 (not x_82)) (?v_177 (not x_84))) (let ((?v_187 (and (and ?v_180 x_83) ?v_177)) (?v_399 (not x_121)) (?v_178 (not x_122))) (let ((?v_182 (and ?v_399 ?v_178)) (?v_193 (and (and x_98 ?v_175) ?v_176)) (?v_194 (and (and x_82 x_83) ?v_177)) (?v_184 (and x_121 ?v_178)) (?v_195 (and (and ?v_179 x_99) ?v_176)) (?v_183 (not x_83))) (let ((?v_395 (and ?v_180 ?v_183))) (let ((?v_196 (and ?v_395 ?v_177)) (?v_198 (and (and x_98 x_99) ?v_176)) (?v_199 (and (and x_82 ?v_183) ?v_177)) (?v_401 (not x_133)) (?v_402 (not x_135)) (?v_202 (not x_137)) (?v_203 (not x_140)) (?v_204 (not (< ?v_6 316))) (?v_205 (and ?v_200 (= (- x_31 x_94) 316))) (?v_403 (not x_138)) (?v_209 (= x_123 uclid_ZERO)) (?v_385 (= x_64 uclid_ZERO)) (?v_348 (= x_29 x_1)) (?v_344 (= x_30 x_2))) (let ((?v_380 (and ?v_348 ?v_344)) (?v_345 (= x_31 x_0))) (let ((?v_275 (and ?v_380 ?v_345)) (?v_371 (and (or ?v_13 x_15) (or ?v_210 x_38))) (?v_372 (and (or ?v_14 x_16) (or ?v_211 x_39))) (?v_373 (and (or ?v_15 x_17) (or ?v_212 x_40))) (?v_243 (not x_12))) (let ((?v_353 (and (or ?v_47 x_12) (or ?v_243 x_41))) (?v_354 (and (or ?v_48 x_13) (or ?v_213 x_42))) (?v_355 (and (or ?v_49 x_14) (or ?v_214 x_43))) (?v_356 (and (or ?v_73 x_9) (or ?v_215 x_44))) (?v_266 (not x_10))) (let ((?v_357 (and (or ?v_74 x_10) (or ?v_266 x_45))) (?v_358 (and (or ?v_75 x_11) (or ?v_216 x_46)))) (let ((?v_278 (and (and (and (and (and (and (and (and ?v_371 ?v_372) ?v_373) ?v_353) ?v_354) ?v_355) ?v_356) ?v_357) ?v_358)) (?v_264 (not x_66)) (?v_238 (not x_67)) (?v_281 (and (or ?v_34 x_6) (or ?v_217 x_25))) (?v_282 (and (or ?v_35 x_7) (or ?v_218 x_26))) (?v_283 (and (or ?v_36 x_8) (or ?v_219 x_27)))) (let ((?v_292 (and (and (and ?v_59 ?v_281) ?v_282) ?v_283))) (let ((?v_239 (and (not x_47) ?v_292))) (let ((?v_265 (and ?v_239 ?v_87)) (?v_293 (not x_57))) (let ((?v_240 (and (or ?v_104 x_57) (or ?v_293 x_55))) (?v_294 (not x_58))) (let ((?v_241 (and (or ?v_105 x_58) (or ?v_294 x_56))) (?v_226 (not x_32)) (?v_222 (not x_33))) (let ((?v_228 (and ?v_226 ?v_222)) (?v_223 (not x_34))) (let ((?v_242 (and ?v_228 ?v_223))) (let ((?v_231 (and ?v_242 ?v_220)) (?v_244 (and (and x_32 ?v_222) ?v_223)) (?v_286 (and (and x_15 ?v_211) ?v_212))) (let ((?v_233 (and ?v_244 ?v_286)) (?v_246 (and (and x_3 ?v_224) ?v_225)) (?v_247 (and (and ?v_226 x_33) ?v_223)) (?v_288 (and (and ?v_210 x_16) ?v_212))) (let ((?v_234 (and ?v_247 ?v_288)) (?v_248 (and (and ?v_227 x_4) ?v_225)) (?v_249 (and (and x_32 x_33) ?v_223)) (?v_289 (and (and x_15 x_16) ?v_212))) (let ((?v_235 (and ?v_249 ?v_289)) (?v_250 (and (and x_3 x_4) ?v_225)) (?v_251 (and ?v_228 x_34)) (?v_291 (and ?v_229 x_17))) (let ((?v_236 (and ?v_251 ?v_291)) (?v_253 (and ?v_230 x_5)) (?v_298 (and (and (and (or ?v_21 x_3) (or ?v_227 x_22)) (and (or ?v_18 x_4) (or ?v_224 x_23))) (and (or ?v_19 x_5) (or ?v_225 x_24))))) (let ((?v_300 (and ?v_298 ?v_34))) (let ((?v_296 (and ?v_300 ?v_35))) (let ((?v_304 (and ?v_296 x_27)) (?v_279 (not x_53))) (let ((?v_276 (and (or ?v_87 x_53) (or ?v_279 x_51))) (?v_280 (not x_54))) (let ((?v_277 (and (or ?v_88 x_54) (or ?v_280 x_52)))) (let ((?v_254 (and (and (and x_47 ?v_304) ?v_276) ?v_277))) (let ((?v_269 (and ?v_254 ?v_104)) (?v_257 (and (and x_6 ?v_218) ?v_219)) (?v_259 (and (and ?v_217 x_7) ?v_219)) (?v_261 (and (and x_6 x_7) ?v_219)) (?v_263 (and ?v_237 x_8)) (?v_252 (and ?v_243 ?v_213))) (let ((?v_308 (and ?v_252 ?v_214))) (let ((?v_255 (and ?v_242 ?v_308)) (?v_256 (and ?v_244 ?v_245)) (?v_313 (and (and ?v_243 x_13) ?v_214))) (let ((?v_258 (and ?v_247 ?v_313)) (?v_316 (and (and x_12 x_13) ?v_214))) (let ((?v_260 (and ?v_249 ?v_316)) (?v_319 (and ?v_252 x_14))) (let ((?v_262 (and ?v_251 ?v_319)) (?v_268 (and ?v_215 ?v_266))) (let ((?v_332 (and ?v_268 ?v_216))) (let ((?v_270 (and ?v_242 ?v_332)) (?v_333 (and (and x_9 ?v_266) ?v_216))) (let ((?v_271 (and ?v_244 ?v_333)) (?v_272 (and ?v_247 ?v_267)) (?v_334 (and (and x_9 x_10) ?v_216))) (let ((?v_273 (and ?v_249 ?v_334)) (?v_335 (and ?v_268 x_11))) (let ((?v_274 (and ?v_251 ?v_335)) (?v_342 (- x_65 uclid_ZERO)) (?v_343 (and (and (and ?v_276 ?v_277) ?v_240) ?v_241)) (?v_330 (not x_68)) (?v_305 (not x_69)) (?v_306 (and (not x_28) ?v_253))) (let ((?v_331 (and ?v_306 ?v_279)) (?v_287 (not x_59)) (?v_284 (not x_60))) (let ((?v_290 (and ?v_287 ?v_284)) (?v_285 (not x_61))) (let ((?v_307 (and ?v_290 ?v_285))) (let ((?v_295 (and ?v_307 ?v_220)) (?v_309 (and (and (and ?v_50 ?v_281) ?v_282) ?v_283)) (?v_310 (and (and x_59 ?v_284) ?v_285))) (let ((?v_297 (and ?v_310 ?v_286)) (?v_311 (and (and (and ?v_52 ?v_281) ?v_282) ?v_283)) (?v_312 (and (and ?v_287 x_60) ?v_285))) (let ((?v_299 (and ?v_312 ?v_288)) (?v_314 (and (and (and ?v_54 ?v_281) ?v_282) ?v_283)) (?v_315 (and (and x_59 x_60) ?v_285))) (let ((?v_301 (and ?v_315 ?v_289)) (?v_317 (and (and (and ?v_56 ?v_281) ?v_282) ?v_283)) (?v_318 (and ?v_290 x_61))) (let ((?v_303 (and ?v_318 ?v_291)) (?v_320 (and x_28 ?v_263))) (let ((?v_336 (and ?v_320 ?v_293)) (?v_322 (and ?v_296 ?v_36)) (?v_302 (and ?v_298 x_25))) (let ((?v_324 (and (and ?v_302 ?v_35) ?v_36)) (?v_326 (and (and ?v_300 x_26) ?v_36)) (?v_328 (and (and ?v_302 x_26) ?v_36)) (?v_321 (and ?v_307 ?v_308)) (?v_323 (and ?v_310 ?v_245)) (?v_325 (and ?v_312 ?v_313)) (?v_327 (and ?v_315 ?v_316)) (?v_329 (and ?v_318 ?v_319)) (?v_337 (and ?v_307 ?v_332)) (?v_338 (and ?v_310 ?v_333)) (?v_339 (and ?v_312 ?v_267)) (?v_340 (and ?v_315 ?v_334)) (?v_341 (and ?v_318 ?v_335)) (?v_352 (and (and (and ?v_298 ?v_281) ?v_282) ?v_283)) (?v_351 (not x_70)) (?v_347 (not x_71)) (?v_389 (not x_48)) (?v_346 (not x_50))) (let ((?v_349 (and (and ?v_389 x_49) ?v_346)) (?v_350 (and (and x_48 x_49) ?v_346)) (?v_391 (not x_72)) (?v_368 (not x_73)) (?v_363 (not x_35)) (?v_359 (not x_36))) (let ((?v_388 (and ?v_363 ?v_359)) (?v_360 (not x_37))) (let ((?v_369 (and ?v_388 ?v_360)) (?v_364 (not x_19)) (?v_361 (not x_21))) (let ((?v_370 (and (and ?v_364 x_20) ?v_361)) (?v_390 (not x_62)) (?v_362 (not x_63))) (let ((?v_365 (and ?v_390 ?v_362)) (?v_374 (and (and x_35 ?v_359) ?v_360)) (?v_375 (and (and x_19 x_20) ?v_361)) (?v_367 (and x_62 ?v_362)) (?v_376 (and (and ?v_363 x_36) ?v_360)) (?v_366 (not x_20))) (let ((?v_387 (and ?v_364 ?v_366))) (let ((?v_377 (and ?v_387 ?v_361)) (?v_378 (and (and x_35 x_36) ?v_360)) (?v_379 (and (and x_19 ?v_366) ?v_361)) (?v_392 (not x_74)) (?v_393 (not x_76)) (?v_381 (not x_78)) (?v_382 (not x_81)) (?v_383 (not (< ?v_0 316))) (?v_384 (and ?v_380 (= (- x_0 x_31) 316))) (?v_394 (not x_79)) (?v_386 (= x_18 uclid_ZERO))) (and (and (and (and (and (and (and (and (and (and (and (and (and (and (and (and (and (and (and (and (and (and (and (and (and (and (and (and (and (and (and (and (and (and (and (and (and (and (and (and (and (and (and (and (and (and (and (and (and (and (and (and (and (and (and (and (and (and (and (and (and (and (and (and (and (and (and (and (and (and (and (and (and (and (and (and (and (and (and (and (and (and (and (and (not (< x_0 uclid_ZERO)) (or (< ?v_0 1000) (= ?v_0 1000))) (not (< x_1 uclid_ZERO))) (or (< ?v_1 1000) (= ?v_1 1000))) (not (< x_2 uclid_ZERO))) (or (< ?v_2 1000) (= ?v_2 1000))) (not (< x_18 uclid_ZERO))) (or (< ?v_3 1) ?v_12)) (not (< x_29 uclid_ZERO))) (or (< ?v_4 1000) (= ?v_4 1000))) (not (< x_30 uclid_ZERO))) (or (< ?v_5 1000) (= ?v_5 1000))) (not (< x_31 uclid_ZERO))) (or (< ?v_6 1000) (= ?v_6 1000))) (not (< x_64 uclid_ZERO))) (or (< ?v_7 1) ?v_207)) (not (< x_92 uclid_ZERO))) (or (< ?v_8 1000) (= ?v_8 1000))) (not (< x_93 uclid_ZERO))) (or (< ?v_9 1000) (= ?v_9 1000))) (not (< x_94 uclid_ZERO))) (or (< ?v_10 1000) (= ?v_10 1000))) (not (< x_123 uclid_ZERO))) (or (< ?v_11 1) ?v_208)) (= ?v_0 100)) (= ?v_1 20)) (= ?v_2 20)) ?v_221) ?v_232) ?v_267) ?v_245) ?v_220) ?v_12) (or (or (or (or (and (and (and (= x_124 uclid_ZERO) ?v_83) ?v_86) (or (or (and (and ?v_71 ?v_42) (or (and (and (and (and ?v_72 ?v_30) ?v_44) ?v_45) (or (or (or (or (and ?v_33 ?v_50) (and ?v_37 ?v_52)) (and ?v_38 ?v_54)) (and ?v_39 ?v_56)) (and ?v_40 ?v_59))) (and (and ?v_77 ?v_32) (or (or (or (or (and ?v_33 ?v_62) (and ?v_37 ?v_64)) (and ?v_38 ?v_66)) (and ?v_39 ?v_68)) (and ?v_40 ?v_70))))) (and (and x_125 ?v_42) (or (and (and (and (and (and ?v_43 x_114) ?v_30) ?v_44) ?v_45) (or (or (or (or (and ?v_61 ?v_50) (and ?v_63 ?v_52)) (and ?v_65 ?v_54)) (and ?v_67 ?v_56)) (and ?v_69 ?v_59))) (and (and (and ?v_60 x_116) ?v_32) (or (or (or (or (and ?v_61 ?v_62) (and ?v_63 ?v_64)) (and ?v_65 ?v_66)) (and ?v_67 ?v_68)) (and ?v_69 ?v_70)))))) (and (and ?v_71 x_126) (or (and (and (and (and ?v_72 x_115) ?v_44) ?v_45) (or (or (or (or (and ?v_78 ?v_50) (and ?v_79 ?v_52)) (and ?v_80 ?v_54)) (and ?v_81 ?v_56)) (and ?v_82 ?v_59))) (and (and ?v_77 x_117) (or (or (or (or (and ?v_78 ?v_62) (and ?v_79 ?v_64)) (and ?v_80 ?v_66)) (and ?v_81 ?v_68)) (and ?v_82 ?v_70))))))) (and (and (and (and (= ?v_156 1) ?v_83) ?v_157) ?v_86) (or (or (and (and ?v_143 ?v_117) (or (and (and ?v_144 ?v_88) (or (or (or (or (and ?v_106 ?v_121) (and ?v_109 ?v_124)) (and ?v_111 ?v_127)) (and ?v_113 ?v_130)) (and ?v_115 ?v_103))) (and (and ?v_150 ?v_105) (or (or (or (or (and ?v_106 ?v_135) (and ?v_109 ?v_137)) (and ?v_111 ?v_139)) (and ?v_113 ?v_141)) (and ?v_115 ?v_116))))) (and (and x_127 ?v_117) (or (and (and (and ?v_118 x_51) ?v_88) (or (or (or (or (and ?v_134 ?v_121) (and ?v_136 ?v_124)) (and ?v_138 ?v_127)) (and ?v_140 ?v_130)) (and ?v_142 ?v_103))) (and (and (and ?v_133 x_55) ?v_105) (or (or (or (or (and ?v_134 ?v_135) (and ?v_136 ?v_137)) (and ?v_138 ?v_139)) (and ?v_140 ?v_141)) (and ?v_142 ?v_116)))))) (and (and ?v_143 x_128) (or (and (and ?v_144 x_52) (or (or (or (or (and ?v_151 ?v_121) (and ?v_152 ?v_124)) (and ?v_153 ?v_127)) (and ?v_154 ?v_130)) (and ?v_155 ?v_103))) (and (and ?v_150 x_56) (or (or (or (or (and ?v_151 ?v_135) (and ?v_152 ?v_137)) (and ?v_153 ?v_139)) (and ?v_154 ?v_141)) (and ?v_155 ?v_116)))))))) (and (and (and (and (= ?v_156 2) ?v_166) ?v_157) ?v_86) (or (or (and (and (and (and (and ?v_165 ?v_161) (= ?v_8 100)) ?v_158) ?v_159) (or (and ?v_163 ?v_99) (and ?v_164 ?v_100))) (and (and (and (and (and x_129 ?v_161) ?v_162) (= ?v_9 100)) ?v_159) (or (and ?v_163 ?v_126) (and ?v_164 ?v_129)))) (and (and (and (and (and ?v_165 x_130) ?v_162) ?v_158) (= ?v_10 400)) (or (and ?v_163 ?v_147) (and ?v_164 ?v_148)))))) (and (and (and (= ?v_156 3) ?v_166) ?v_157) (or (and (and (and (and (and (and ?v_400 ?v_185) (not (< ?v_4 20))) (= (- x_29 x_92) 20)) ?v_158) ?v_159) (or (or (or (and (and (and (and (and (and (and (and (and (and (and (and ?v_186 ?v_89) ?v_187) ?v_167) x_102) ?v_168) ?v_169) ?v_170) ?v_171) ?v_172) ?v_173) ?v_174) ?v_182) (and (and (and (and (and (and (and (and (and (and (and (and ?v_193 ?v_97) ?v_194) x_101) x_102) ?v_168) ?v_169) ?v_170) ?v_171) ?v_172) ?v_173) ?v_174) ?v_184)) (and (and (and (and (and (and (and (and (and (and (and (and ?v_195 ?v_99) ?v_196) ?v_167) ?v_181) ?v_168) ?v_169) ?v_170) ?v_171) ?v_172) ?v_173) ?v_174) ?v_182)) (and (and (and (and (and (and (and (and (and (and (and (and ?v_198 ?v_100) ?v_199) x_101) ?v_181) ?v_168) ?v_169) ?v_170) ?v_171) ?v_172) ?v_173) ?v_174) ?v_184))) (and (and (and (and (and (and x_131 ?v_185) (not (< ?v_5 20))) ?v_162) (= (- x_30 x_93) 20)) ?v_159) (or (or (or (and (and (and (and (and (and (and (and (and (and (and (and ?v_186 ?v_120) ?v_187) ?v_188) ?v_189) ?v_190) ?v_191) x_105) ?v_192) ?v_172) ?v_173) ?v_174) ?v_182) (and (and (and (and (and (and (and (and (and (and (and (and ?v_193 ?v_123) ?v_194) ?v_188) ?v_189) ?v_190) x_104) x_105) ?v_192) ?v_172) ?v_173) ?v_174) ?v_184)) (and (and (and (and (and (and (and (and (and (and (and (and ?v_195 ?v_126) ?v_196) ?v_188) ?v_189) ?v_190) ?v_191) ?v_197) ?v_192) ?v_172) ?v_173) ?v_174) ?v_182)) (and (and (and (and (and (and (and (and (and (and (and (and ?v_198 ?v_129) ?v_199) ?v_188) ?v_189) ?v_190) x_104) ?v_197) ?v_192) ?v_172) ?v_173) ?v_174) ?v_184)))))) (and (and (and (and (and (= ?v_156 4) ?v_166) ?v_157) ?v_401) x_134) (or (and (and (and (and (and (and (and (and (and (and (and (and (and (and (and (and (and ?v_402 x_136) ?v_202) ?v_147) x_138) x_139) ?v_203) ?v_204) ?v_205) ?v_188) ?v_189) ?v_190) ?v_169) ?v_170) ?v_171) x_107) x_108) ?v_201) (and (and (and (and (and (and (and (and (and (and (and (and (and (and (and (and (and x_135 x_136) ?v_202) ?v_148) ?v_403) x_139) ?v_203) ?v_204) ?v_205) ?v_188) ?v_189) ?v_190) ?v_169) ?v_170) ?v_171) ?v_206) x_108) ?v_201))))) (or (or (and (and ?v_207 (or (or (or ?v_21 x_23) x_24) (and ?v_52 (or (or ?v_34 x_26) x_27)))) ?v_208) (and (and (and (and (and ?v_207 ?v_52) x_25) ?v_35) ?v_36) ?v_209)) (and ?v_385 ?v_209))) (or (or (or (or (and (and (and (= x_65 uclid_ZERO) ?v_275) ?v_278) (or (or (and (and ?v_264 ?v_238) (or (and (and (and (and ?v_265 ?v_88) ?v_240) ?v_241) (or (or (or (or (and ?v_231 ?v_221) (and ?v_233 ?v_246)) (and ?v_234 ?v_248)) (and ?v_235 ?v_250)) (and ?v_236 ?v_253))) (and (and ?v_269 ?v_105) (or (or (or (or (and ?v_231 ?v_232) (and ?v_233 ?v_257)) (and ?v_234 ?v_259)) (and ?v_235 ?v_261)) (and ?v_236 ?v_263))))) (and (and x_66 ?v_238) (or (and (and (and (and (and ?v_239 x_51) ?v_88) ?v_240) ?v_241) (or (or (or (or (and ?v_255 ?v_221) (and ?v_256 ?v_246)) (and ?v_258 ?v_248)) (and ?v_260 ?v_250)) (and ?v_262 ?v_253))) (and (and (and ?v_254 x_55) ?v_105) (or (or (or (or (and ?v_255 ?v_232) (and ?v_256 ?v_257)) (and ?v_258 ?v_259)) (and ?v_260 ?v_261)) (and ?v_262 ?v_263)))))) (and (and ?v_264 x_67) (or (and (and (and (and ?v_265 x_52) ?v_240) ?v_241) (or (or (or (or (and ?v_270 ?v_221) (and ?v_271 ?v_246)) (and ?v_272 ?v_248)) (and ?v_273 ?v_250)) (and ?v_274 ?v_253))) (and (and ?v_269 x_56) (or (or (or (or (and ?v_270 ?v_232) (and ?v_271 ?v_257)) (and ?v_272 ?v_259)) (and ?v_273 ?v_261)) (and ?v_274 ?v_263))))))) (and (and (and (and (= ?v_342 1) ?v_275) ?v_343) ?v_278) (or (or (and (and ?v_330 ?v_305) (or (and (and ?v_331 ?v_280) (or (or (or (or (and ?v_295 ?v_309) (and ?v_297 ?v_311)) (and ?v_299 ?v_314)) (and ?v_301 ?v_317)) (and ?v_303 ?v_292))) (and (and ?v_336 ?v_294) (or (or (or (or (and ?v_295 ?v_322) (and ?v_297 ?v_324)) (and ?v_299 ?v_326)) (and ?v_301 ?v_328)) (and ?v_303 ?v_304))))) (and (and x_68 ?v_305) (or (and (and (and ?v_306 x_53) ?v_280) (or (or (or (or (and ?v_321 ?v_309) (and ?v_323 ?v_311)) (and ?v_325 ?v_314)) (and ?v_327 ?v_317)) (and ?v_329 ?v_292))) (and (and (and ?v_320 x_57) ?v_294) (or (or (or (or (and ?v_321 ?v_322) (and ?v_323 ?v_324)) (and ?v_325 ?v_326)) (and ?v_327 ?v_328)) (and ?v_329 ?v_304)))))) (and (and ?v_330 x_69) (or (and (and ?v_331 x_54) (or (or (or (or (and ?v_337 ?v_309) (and ?v_338 ?v_311)) (and ?v_339 ?v_314)) (and ?v_340 ?v_317)) (and ?v_341 ?v_292))) (and (and ?v_336 x_58) (or (or (or (or (and ?v_337 ?v_322) (and ?v_338 ?v_324)) (and ?v_339 ?v_326)) (and ?v_340 ?v_328)) (and ?v_341 ?v_304)))))))) (and (and (and (and (= ?v_342 2) ?v_352) ?v_343) ?v_278) (or (or (and (and (and (and (and ?v_351 ?v_347) (= ?v_4 100)) ?v_344) ?v_345) (or (and ?v_349 ?v_288) (and ?v_350 ?v_289))) (and (and (and (and (and x_70 ?v_347) ?v_348) (= ?v_5 100)) ?v_345) (or (and ?v_349 ?v_313) (and ?v_350 ?v_316)))) (and (and (and (and (and ?v_351 x_71) ?v_348) ?v_344) (= ?v_6 400)) (or (and ?v_349 ?v_267) (and ?v_350 ?v_334)))))) (and (and (and (= ?v_342 3) ?v_352) ?v_343) (or (and (and (and (and (and (and ?v_391 ?v_368) (not (< ?v_1 20))) (= (- x_1 x_29) 20)) ?v_344) ?v_345) (or (or (or (and (and (and (and (and (and (and (and (and (and (and (and ?v_369 ?v_220) ?v_370) ?v_13) x_39) ?v_15) ?v_353) ?v_354) ?v_355) ?v_356) ?v_357) ?v_358) ?v_365) (and (and (and (and (and (and (and (and (and (and (and (and ?v_374 ?v_286) ?v_375) x_38) x_39) ?v_15) ?v_353) ?v_354) ?v_355) ?v_356) ?v_357) ?v_358) ?v_367)) (and (and (and (and (and (and (and (and (and (and (and (and ?v_376 ?v_288) ?v_377) ?v_13) ?v_14) ?v_15) ?v_353) ?v_354) ?v_355) ?v_356) ?v_357) ?v_358) ?v_365)) (and (and (and (and (and (and (and (and (and (and (and (and ?v_378 ?v_289) ?v_379) x_38) ?v_14) ?v_15) ?v_353) ?v_354) ?v_355) ?v_356) ?v_357) ?v_358) ?v_367))) (and (and (and (and (and (and x_72 ?v_368) (not (< ?v_2 20))) ?v_348) (= (- x_2 x_30) 20)) ?v_345) (or (or (or (and (and (and (and (and (and (and (and (and (and (and (and ?v_369 ?v_308) ?v_370) ?v_371) ?v_372) ?v_373) ?v_47) x_42) ?v_49) ?v_356) ?v_357) ?v_358) ?v_365) (and (and (and (and (and (and (and (and (and (and (and (and ?v_374 ?v_245) ?v_375) ?v_371) ?v_372) ?v_373) x_41) x_42) ?v_49) ?v_356) ?v_357) ?v_358) ?v_367)) (and (and (and (and (and (and (and (and (and (and (and (and ?v_376 ?v_313) ?v_377) ?v_371) ?v_372) ?v_373) ?v_47) ?v_48) ?v_49) ?v_356) ?v_357) ?v_358) ?v_365)) (and (and (and (and (and (and (and (and (and (and (and (and ?v_378 ?v_316) ?v_379) ?v_371) ?v_372) ?v_373) x_41) ?v_48) ?v_49) ?v_356) ?v_357) ?v_358) ?v_367)))))) (and (and (and (and (and (= ?v_342 4) ?v_352) ?v_343) ?v_392) x_75) (or (and (and (and (and (and (and (and (and (and (and (and (and (and (and (and (and (and ?v_393 x_77) ?v_381) ?v_267) x_79) x_80) ?v_382) ?v_383) ?v_384) ?v_371) ?v_372) ?v_373) ?v_353) ?v_354) ?v_355) x_44) x_45) ?v_75) (and (and (and (and (and (and (and (and (and (and (and (and (and (and (and (and (and x_76 x_77) ?v_381) ?v_334) ?v_394) x_80) ?v_382) ?v_383) ?v_384) ?v_371) ?v_372) ?v_373) ?v_353) ?v_354) ?v_355) ?v_73) x_45) ?v_75))))) (or (or (and (and ?v_12 (or (or (or ?v_227 x_4) x_5) (and ?v_246 (or (or ?v_217 x_7) x_8)))) ?v_207) (and (and (and (and (and ?v_12 ?v_246) x_6) ?v_218) ?v_219) ?v_385)) (and ?v_386 ?v_385))) (or (or ?v_209 ?v_385) ?v_386)) (or ?v_225 ?v_230)) (or ?v_219 ?v_237)) (or ?v_216 ?v_268)) (or ?v_214 ?v_252)) (or ?v_212 ?v_229)) (or ?v_361 ?v_387)) (or ?v_19 ?v_24)) (or ?v_36 ?v_41)) (or ?v_223 ?v_228)) (or ?v_360 ?v_388)) (or ?v_15 ?v_23)) (or ?v_49 ?v_58)) (or ?v_75 ?v_76)) (or ?v_346 (and (not x_49) ?v_389))) (or ?v_88 ?v_87)) (or ?v_280 ?v_279)) (or ?v_105 ?v_104)) (or ?v_294 ?v_293)) (or ?v_285 ?v_290)) (or ?v_362 ?v_390)) (or ?v_238 ?v_264)) (or ?v_305 ?v_330)) (or ?v_347 ?v_351)) (or ?v_368 ?v_391)) (or (not x_75) ?v_392)) (or ?v_381 (and (not x_77) ?v_393))) (or ?v_382 (and (not x_80) ?v_394))) (or ?v_177 ?v_395)) (or ?v_91 ?v_90)) (or ?v_108 (and ?v_28 ?v_27))) (or ?v_17 ?v_22)) (or ?v_176 ?v_396)) (or ?v_168 (and ?v_181 ?v_167))) (or ?v_192 (and ?v_197 ?v_191))) (or ?v_201 (and ?v_397 ?v_206))) (or ?v_160 (and (not x_112) ?v_398))) (or ?v_30 ?v_29)) (or ?v_32 ?v_31)) (or ?v_96 ?v_101)) (or ?v_178 ?v_399)) (or ?v_42 ?v_71)) (or ?v_117 ?v_143)) (or ?v_161 ?v_165)) (or ?v_185 ?v_400)) (or (not x_134) ?v_401)) (or ?v_202 (and (not x_136) ?v_402))) (or ?v_203 (and (not x_139) ?v_403))))))))))))))))))))))))))))))))))))))))))))))))))))))))))))))))))))))))))))))))))))))))))))))))))))))))))))))))))))))))))))))))))))))))
(check-sat)
(exit)
